NAME: instance_1814
TYPE: TSP
DIMENSION: 20
EDGE_WEIGHT_TYPE: EUC_2D
NODE_COORD_SECTION
0 26.46 95.46
1 3.26 23.85
2 28.10 88.73
3 92.63 80.28
4 74.66 25.10
5 2.42 50.64
6 63.35 92.39
7 78.40 90.75
8 16.02 64.42
9 92.50 6.82
10 46.82 21.72
11 73.12 58.10
12 30.86 39.46
13 40.11 9.31
14 93.51 34.15
15 70.95 45.83
16 3.84 56.05
17 16.10 75.35
18 95.81 48.19
19 63.31 39.87
EOF
